1000
345
1000
345
432
345
654
653
345
654
653
652
651
344
433
1000
345
432
345
654
653
652
651
344
433
1000
345
432
345
654
653
652
651
344
433
1000
345
432
345
654
653
652
651
344
433
1000
345
432
345
654
653
652
651
344
433
1000
345
432
345
654
653
652
651
344
433
1000
345
432
345
653
652
651
344
433
654
653
652
651
344
433
1000
345
433
1000
345
432
345
654
653
652
651
344
433
432
345
654
432
652
651
344
653
651
344
433
500
845
432
345
654
653
652
655
340
433
800
545
432
345
654
653
652
651
354
423
1000
345
432
345
654
653
652
651
347
430
1000
345
432
345
655
1000
345
432
345
653
653
653
652
650
344
433
1000
345
432
345
654
653
652
651
344
433
344
433
1000
345
432
345
654
653
652
651
344
433
900
345
433
344
654
653
752
651
344
433
1000
345
432
345
654
653
652
651
651
344
433
1000
345
433
344
654
653
652
653
651
344
433
500
845
432
345
654
653
652
655
340
433
800
545
432
345
654
653
652
651
354
423
1000
345
432
345
654
653
652
651
347
430
1000
345
432
345
655
1000
345
432
345
653
653
653
652
650
344
433
1000
345
432
345
654
653
652
651
344
433
344
433
1000
345
432
345
654
653
652
651
344
433
900
345
433
344
654
653
752
651
344
433
1000
345
432
345
654
653
652
651
651
344
433
1000
345
433
344
654
653
652
1000
345
1000
345
432
345
654
653
345
654
653
652
651
344
433
1000
345
432
345
654
653
652
651
344
433
1000
345
432
345
654
653
652
651
344
433
1000
345
432
345
654
653
652
651
344
433
1000
345
432
345
654
653
652
651
344
433
1000
345
432
345
654
653
652
651
344
433
1000
345
432
345
653
652
651
344
433
654
653
652
651
344
433
1000
345
433
1000
345
432
345
654
653
652
651
344
433
432
345
654
432
652
651
344
1000
345
1000
345
432
345
654
653
345
654
653
652
651
344
433
1000
345
432
345
654
653
652
651
344
433
1000
345
432
345
654
653
652
651
344
433
1000
345
432
345
654
653
652
651
344
433
1000
345
432
345
654
653
652
651
344
433
1000
345
432
345
654
653
652
651
344
433
1000
345
432
345
653
652
651
344
433
654
653
652
651
344
433
1000
345
433
1000
345
432
345
654
653
652
651
344
433
432
345
654
432
652
651
344
